
--- Job Demo1.gms Start 11/05/14 12:54:44
GAMS Rev 227  Copyright (C) 1987-2008 GAMS Development. All rights reserved
Licensee: Julien Harou                                   S111125:0840AN-WIN
          University College London, Dep. of Civil, Environmental & GDC9389
          License for teaching and research at degree granting institutions
--- Starting compilation
--- Demo1.gms(12) 2 Mb
--- .dataset 1.txt(110) 3 Mb
--- Demo1.gms(78) 3 Mb
--- Starting execution: elapsed 0:00:00.007
--- Demo1.gms(89) 4 Mb
--- Generating LP model Demo1
--- Demo1.gms(180) 4 Mb
---   15 rows  7 columns  26 non-zeroes
--- Demo1.gms(180) 4 Mb
--- Executing CPLEX: elapsed 0:00:00.036

ILOG CPLEX       May  1, 2008 22.7.2 WEX 4792.4799 WEI x86_64/MS Windows
Cplex 11.0.1, GAMS Link 34 

Reading data...
Starting Cplex...
Tried aggregator 1 time.
LP Presolve eliminated 13 rows and 3 columns.
Aggregator did 1 substitutions.
Reduced LP has 1 rows, 3 columns, and 3 nonzeros.
Presolve time =    0.00 sec.

Iteration      Dual Objective            In Variable           Out Variable
     1            5170.000000               Q(J1.J2)MassBalance_nonst artif

Optimal solution found.
Objective :        5170.000000

--- Restarting execution
--- Demo1.gms(180) 2 Mb
--- Reading solution for model Demo1
--- Demo1.gms(180) 2 Mb
--- Executing after solve: elapsed 0:00:00.104
--- Demo1.gms(182) 3 Mb
*** Status: Normal completion
--- Job Demo1.gms Stop 11/05/14 12:54:44 elapsed 0:00:00.109
